Route #1: 89 109 108 128 148 129 149 169 189 168 188 167 187 147 127 107 106 126 146 166 186 165 185 145 125 105 104 124 144 164 184 163 183 143 123 103 102 122 142 162 182 180 200 161 181 141 121 101 81 100
Route #2: 92 93 94 95 96 116 115 135 155 136 156 176 196 175 195 174 194 154 134 114 113 133 153 173 193 172 192 152 132 112 111 131 151 171 191 170 190 150 130 110 90 91
Route #3: 37 57 58 59 79 80 61 62 82 83 84 85 86 87 88 68 78 98 99 119 139 118 138 120 140 160 179 199 159 158 178 198 177 197 157 137 117 97 77 75 76 56 55 36
Route #4: 38 39 40 60 41 42 44 43 63 64 65 66 67 47 45 46 48 49 69 70 71 72 73 74 54 53 50 51 52 32 21 22 23 24 25 26 27 28 29 30 31 33 34 35
Route #5: 20 1 2 3 4 5 6 7 8 9 10 11 12 13 14 15 16 17 18 19
Cost 7608.532349461603